c colouring generated by benchmark framework
p edge 676 1300
v 1 3
v 2 1
v 3 2
v 4 1
v 5 3
v 6 2
v 7 3
v 8 1
v 9 3
v 10 1
v 11 0
v 12 2
v 13 0
v 14 2
v 15 1
v 16 2
v 17 1
v 18 3
v 19 2
v 20 3
v 21 1
v 22 3
v 23 1
v 24 3
v 25 0
v 26 3
v 27 2
v 28 0
v 29 3
v 30 0
v 31 2
v 32 0
v 33 1
v 34 0
v 35 1
v 36 2
v 37 3
v 38 1
v 39 3
v 40 1
v 41 2
v 42 3
v 43 0
v 44 2
v 45 3
v 46 2
v 47 0
v 48 2
v 49 3
v 50 1
v 51 2
v 52 0
v 53 3
v 54 1
v 55 0
v 56 2
v 57 1
v 58 3
v 59 0
v 60 2
v 61 3
v 62 0
v 63 2
v 64 0
v 65 1
v 66 0
v 67 3
v 68 0
v 69 1
v 70 0
v 71 2
v 72 1
v 73 3
v 74 1
v 75 0
v 76 3
v 77 0
v 78 2
v 79 1
v 80 0
v 81 1
v 82 3
v 83 0
v 84 1
v 85 2
v 86 1
v 87 0
v 88 3
v 89 0
v 90 1
v 91 0
v 92 3
v 93 2
v 94 1
v 95 3
v 96 2
v 97 1
v 98 3
v 99 2
v 100 0
v 101 3
v 102 2
v 103 1
v 104 3
v 105 2
v 106 3
v 107 2
v 108 0
v 109 1
v 110 2
v 111 3
v 112 0
v 113 1
v 114 2
v 115 1
v 116 2
v 117 1
v 118 2
v 119 1
v 120 2
v 121 1
v 122 0
v 123 3
v 124 2
v 125 3
v 126 1
v 127 0
v 128 1
v 129 0
v 130 1
v 131 0
v 132 1
v 133 3
v 134 1
v 135 3
v 136 1
v 137 2
v 138 3
v 139 0
v 140 3
v 141 0
v 142 3
v 143 2
v 144 0
v 145 2
v 146 1
v 147 3
v 148 1
v 149 0
v 150 3
v 151 1
v 152 2
v 153 3
v 154 0
v 155 1
v 156 0
v 157 2
v 158 3
v 159 2
v 160 0
v 161 2
v 162 3
v 163 0
v 164 1
v 165 2
v 166 1
v 167 3
v 168 2
v 169 0
v 170 3
v 171 1
v 172 2
v 173 1
v 174 0
v 175 1
v 176 0
v 177 3
v 178 0
v 179 2
v 180 1
v 181 2
v 182 3
v 183 1
v 184 0
v 185 3
v 186 1
v 187 0
v 188 2
v 189 3
v 190 2
v 191 3
v 192 0
v 193 2
v 194 0
v 195 1
v 196 2
v 197 3
v 198 1
v 199 3
v 200 1
v 201 2
v 202 1
v 203 2
v 204 3
v 205 1
v 206 0
v 207 1
v 208 2
v 209 2
v 210 3
v 211 2
v 212 0
v 213 1
v 214 0
v 215 2
v 216 3
v 217 0
v 218 3
v 219 0
v 220 1
v 221 3
v 222 0
v 223 1
v 224 3
v 225 1
v 226 2
v 227 1
v 228 0
v 229 3
v 230 0
v 231 2
v 232 1
v 233 3
v 234 1
v 235 3
v 236 0
v 237 3
v 238 1
v 239 3
v 240 1
v 241 0
v 242 2
v 243 1
v 244 0
v 245 1
v 246 2
v 247 1
v 248 3
v 249 2
v 250 0
v 251 3
v 252 1
v 253 0
v 254 3
v 255 1
v 256 2
v 257 3
v 258 0
v 259 2
v 260 0
v 261 1
v 262 3
v 263 1
v 264 2
v 265 0
v 266 2
v 267 3
v 268 1
v 269 3
v 270 1
v 271 3
v 272 0
v 273 3
v 274 1
v 275 0
v 276 3
v 277 1
v 278 2
v 279 1
v 280 0
v 281 3
v 282 1
v 283 0
v 284 2
v 285 1
v 286 3
v 287 2
v 288 1
v 289 2
v 290 1
v 291 2
v 292 0
v 293 1
v 294 0
v 295 2
v 296 3
v 297 1
v 298 2
v 299 1
v 300 0
v 301 2
v 302 1
v 303 2
v 304 3
v 305 2
v 306 3
v 307 1
v 308 3
v 309 1
v 310 0
v 311 2
v 312 1
v 313 0
v 314 2
v 315 3
v 316 2
v 317 0
v 318 2
v 319 3
v 320 2
v 321 3
v 322 0
v 323 2
v 324 3
v 325 2
v 326 3
v 327 0
v 328 3
v 329 0
v 330 1
v 331 0
v 332 2
v 333 3
v 334 2
v 335 0
v 336 3
v 337 0
v 338 2
v 339 3
v 340 0
v 341 1
v 342 3
v 343 2
v 344 1
v 345 0
v 346 3
v 347 1
v 348 3
v 349 1
v 350 0
v 351 3
v 352 1
v 353 3
v 354 0
v 355 2
v 356 0
v 357 1
v 358 0
v 359 2
v 360 1
v 361 2
v 362 0
v 363 2
v 364 1
v 365 2
v 366 3
v 367 2
v 368 0
v 369 3
v 370 2
v 371 1
v 372 0
v 373 2
v 374 0
v 375 2
v 376 1
v 377 2
v 378 0
v 379 1
v 380 2
v 381 3
v 382 2
v 383 3
v 384 1
v 385 3
v 386 2
v 387 3
v 388 2
v 389 1
v 390 2
v 391 3
v 392 2
v 393 0
v 394 1
v 395 2
v 396 1
v 397 3
v 398 2
v 399 3
v 400 1
v 401 0
v 402 2
v 403 0
v 404 3
v 405 2
v 406 0
v 407 1
v 408 0
v 409 2
v 410 3
v 411 0
v 412 1
v 413 0
v 414 1
v 415 2
v 416 1
v 417 1
v 418 0
v 419 3
v 420 2
v 421 1
v 422 3
v 423 1
v 424 3
v 425 1
v 426 2
v 427 1
v 428 3
v 429 1
v 430 0
v 431 3
v 432 1
v 433 3
v 434 2
v 435 1
v 436 0
v 437 3
v 438 2
v 439 1
v 440 2
v 441 0
v 442 3
v 443 0
v 444 1
v 445 2
v 446 0
v 447 3
v 448 1
v 449 3
v 450 0
v 451 2
v 452 0
v 453 2
v 454 0
v 455 2
v 456 3
v 457 2
v 458 0
v 459 2
v 460 1
v 461 3
v 462 1
v 463 0
v 464 1
v 465 2
v 466 3
v 467 2
v 468 0
v 469 2
v 470 3
v 471 0
v 472 3
v 473 1
v 474 2
v 475 1
v 476 2
v 477 3
v 478 2
v 479 1
v 480 3
v 481 0
v 482 1
v 483 0
v 484 3
v 485 0
v 486 3
v 487 2
v 488 3
v 489 2
v 490 3
v 491 0
v 492 1
v 493 3
v 494 1
v 495 1
v 496 2
v 497 3
v 498 0
v 499 3
v 500 0
v 501 3
v 502 1
v 503 2
v 504 3
v 505 2
v 506 0
v 507 1
v 508 2
v 509 3
v 510 2
v 511 1
v 512 0
v 513 3
v 514 1
v 515 0
v 516 1
v 517 2
v 518 0
v 519 2
v 520 3
v 521 2
v 522 1
v 523 2
v 524 1
v 525 2
v 526 1
v 527 2
v 528 3
v 529 0
v 530 2
v 531 0
v 532 3
v 533 2
v 534 3
v 535 2
v 536 3
v 537 0
v 538 3
v 539 1
v 540 2
v 541 3
v 542 0
v 543 3
v 544 2
v 545 3
v 546 1
v 547 1
v 548 3
v 549 1
v 550 0
v 551 1
v 552 3
v 553 1
v 554 0
v 555 1
v 556 3
v 557 1
v 558 2
v 559 0
v 560 1
v 561 0
v 562 2
v 563 1
v 564 2
v 565 3
v 566 0
v 567 1
v 568 2
v 569 0
v 570 1
v 571 0
v 572 2
v 573 2
v 574 0
v 575 3
v 576 2
v 577 3
v 578 2
v 579 0
v 580 2
v 581 3
v 582 2
v 583 0
v 584 1
v 585 2
v 586 0
v 587 3
v 588 0
v 589 2
v 590 0
v 591 1
v 592 3
v 593 0
v 594 3
v 595 2
v 596 0
v 597 1
v 598 3
v 599 0
v 600 1
v 601 2
v 602 1
v 603 0
v 604 3
v 605 1
v 606 3
v 607 2
v 608 3
v 609 1
v 610 3
v 611 1
v 612 3
v 613 1
v 614 2
v 615 3
v 616 2
v 617 3
v 618 1
v 619 3
v 620 1
v 621 3
v 622 1
v 623 3
v 624 0
v 625 1
v 626 0
v 627 1
v 628 3
v 629 2
v 630 1
v 631 0
v 632 1
v 633 3
v 634 0
v 635 3
v 636 2
v 637 3
v 638 2
v 639 3
v 640 0
v 641 2
v 642 1
v 643 2
v 644 3
v 645 2
v 646 0
v 647 1
v 648 3
v 649 1
v 650 2
v 651 0
v 652 2
v 653 0
v 654 1
v 655 0
v 656 3
v 657 1
v 658 0
v 659 2
v 660 3
v 661 1
v 662 3
v 663 2
v 664 0
v 665 1
v 666 3
v 667 0
v 668 3
v 669 1
v 670 0
v 671 3
v 672 1
v 673 0
v 674 2
v 675 0
v 676 3
